TYPE : Vertex Cover
DIMENSION: 25
EDGE_DATA_SECTION:
1 4
1 10
1 12
1 17
1 21
2 5
2 15
2 16
2 19
2 20
3 5
3 15
4 6
4 16
5 11
6 8
7 12
7 18
7 20
7 23
7 24
8 12
8 19
10 13
10 14
11 24
12 13
12 15
12 24
13 19
13 23
13 24
14 16
14 21
14 23
15 21
15 23
17 22
18 24
19 23
20 22
21 24
-1
VERTEX_DEGREE:
0.0 5.0 5.0 2.0 3.0 3.0 2.0 5.0 3.0 0.0 3.0 2.0 6.0 5.0 4.0 5.0 3.0 2.0 2.0 4.0 3.0 4.0 2.0 5.0 6.0
VERTEX_COVER:
1 2 4 5 7 8 13 14 15 22 23 24
EOF
